
Gurobi 11.0.3 (linux64) logging started Sun Nov 24 00:47:04 2024

Set parameter LogFile to value "/home/yihong/Coding/OR_SUC/SUC_results_bigM100000_thread4/case24_ieee_rts_theta0.5_epsilon0.05_gurobi_seed1220000_num_gen100_N_WDR50_load_scaling_factor1_exact_T24quadra_cost.txt"
Set parameter TimeLimit to value 3600
Gurobi Optimizer version 11.0.3 build v11.0.3rc0 (linux64 - "Ubuntu 20.04.6 LTS")

CPU model: AMD EPYC 7532 32-Core Processor, instruction set [SSE2|AVX|AVX2]
Thread count: 64 physical cores, 128 logical processors, using up to 4 threads

Optimize a model with 51943 rows, 29861 columns and 712638 nonzeros
Model fingerprint: 0x5edcda41
Model has 2400 quadratic constraints
Variable types: 27411 continuous, 2450 integer (2450 binary)
Coefficient statistics:
  Matrix range     [2e-05, 1e+05]
  QMatrix range    [2e-03, 8e-03]
  QLMatrix range   [6e-02, 6e+01]
  Objective range  [1e+00, 1e+00]
  Bounds range     [1e+00, 1e+00]
  RHS range        [1e+00, 1e+05]
Presolve removed 42066 rows and 12909 columns
Presolve time: 0.24s
Presolved: 9877 rows, 16952 columns, 61956 nonzeros
Presolved model has 2400 quadratic constraint(s)
Variable types: 14508 continuous, 2444 integer (2444 binary)

Root relaxation: objective 4.489028e+04, 7928 iterations, 0.18 seconds (0.27 work units)

    Nodes    |    Current Node    |     Objective Bounds      |     Work
 Expl Unexpl |  Obj  Depth IntInf | Incumbent    BestBd   Gap | It/Node Time

     0     0 44890.2809    0    4          - 44890.2809      -     -    0s
     0     0 361723.839    0  698          - 361723.839      -     -    0s
     0     0 395236.835    0  667          - 395236.835      -     -    1s
     0     0 651322.915    0  670          - 651322.915      -     -    1s
     0     0 651351.039    0  559          - 651351.039      -     -    1s
     0     0 651891.657    0  341          - 651891.657      -     -    1s
     0     0 652147.046    0  342          - 652147.046      -     -    1s
     0     0 652149.034    0  342          - 652149.034      -     -    1s
     0     2 652149.034    0  342          - 652149.034      -     -    2s
H  416   236                    652667.57482 652184.349  0.07%  35.0    4s
*  416   236             134    652667.57482 652184.349  0.07%  35.4    4s

Cutting planes:
  Gomory: 2
  Implied bound: 426
  MIR: 76
  Flow cover: 77
  RLT: 1
  PSD: 1

Explored 442 nodes (41106 simplex iterations) in 5.63 seconds (6.81 work units)
Thread count was 4 (of 128 available processors)

Solution count 2: 652668 652668 

Optimal solution found (tolerance 1.00e-03)
Warning: max constraint violation (6.8988e-08) exceeds tolerance
Best objective 6.526675748155e+05, best bound 6.521843494122e+05, gap 0.0740%
